networks/zoo_123_2929/zoo_123_2929-lower.txt
Number of groups: 60
Flow 1: {1 4 0} {4 2 0} {2 64 0} 
Flow 2: {1 3 0} {3 65 0} 
Flow 3: {4 66 0} 
Flow 4: {1 21 0} {21 20 0} {20 5 0} {5 67 0} 
Flow 5: {3 6 0} {6 68 0} 
Flow 6: {6 7 0} {7 69 0} 
Flow 7: {1 11 0} {11 48 0} {48 47 0} {51 12 0} {12 8 0} {8 70 0} 
Flow 7: {47 44 0} {44 49 0} {49 50 0} {50 51 0} Flow 8: {51 15 0} {15 9 0} {9 71 0} 
Flow 9: {11 73 0} 
Flow 10: {12 74 0} 
Flow 11: {12 13 0} {13 75 0} 
Flow 12: {11 14 0} {14 76 0} 
Flow 13: {15 77 0} 
Flow 14: {14 41 0} {41 42 0} {42 16 0} {16 78 0} 
Flow 15: {16 17 0} {17 79 0} 
Flow 16: {1 19 0} {19 18 0} {18 80 0} 
Flow 17: {19 81 0} 
Flow 18: {20 82 0} 
Flow 19: {21 83 0} 
Flow 20: {20 22 0} {22 84 0} 
Flow 21: {22 32 0} {32 23 0} {23 85 0} 
Flow 22: {5 10 0} {10 25 0} {25 24 0} {24 86 0} 
Flow 23: {59 58 0} {58 26 0} {26 88 0} 
Flow 23: {49 59 0} Flow 24: {13 27 0} {27 89 0} 
Flow 25: {8 28 0} {28 90 0} 
Flow 26: {42 30 0} {30 92 0} 
Flow 27: {28 31 0} {31 93 0} 
Flow 28: {32 94 0} 
Flow 29: {27 33 0} {33 95 0} 
Flow 30: {3 54 0} {54 53 0} {61 34 0} {34 96 0} 
Flow 30: {53 61 0} Flow 31: {17 36 0} {36 35 0} {35 97 0} 
Flow 32: {36 98 0} 
Flow 33: {17 37 0} {37 99 0} 
Flow 34: {37 38 0} {38 100 0} 
Flow 35: {42 39 0} {39 101 0} 
Flow 36: {39 40 0} {40 102 0} 
Flow 37: {41 103 0} 
Flow 38: {42 104 0} 
Flow 39: {44 43 0} {43 105 0} 
Flow 40: {44 106 0} 
Flow 41: {47 46 0} {46 45 0} {45 107 0} 
Flow 42: {47 109 0} 
Flow 43: {48 110 0} 
Flow 44: {49 111 0} 
Flow 45: {50 112 0} 
Flow 46: {51 113 0} 
Flow 47: {53 115 0} 
Flow 48: {54 116 0} 
Flow 49: {58 57 0} {57 56 0} {56 55 0} {55 117 0} 
Flow 50: {56 118 0} 
Flow 51: {57 119 0} 
Flow 52: {58 120 0} 
Flow 53: {59 121 0} 
Flow 54: {34 60 0} {60 122 0} 
Flow 55: {61 123 0} 
Flow 56: {3 1 0} {1 63 0} 
Flow 57: {6 2 0} Flow 63: {26 9 0} {60 59 0} Flow 64: {10 72 0} 
Flow 79: {25 87 0} 
Flow 86: {55 33 0} Flow 96: {34 43 0} Flow 99: {46 108 0} 
Flow 105: {45 52 0} {52 114 0} 
Flow 115: {4 1 0} Flow 119: {2 6 0} Flow 174: {5 20 0} {20 21 0} {21 1 0} Flow 180: {25 32 0} {32 30 0} {30 29 0} {29 45 0} {52 51 0} Flow 188: {30 42 0} Flow 195: {24 23 0} Flow 198: {45 49 0} Flow 212: {42 41 0} Flow 217: {45 46 0} Flow 230: {59 60 0} Flow 232: {6 3 0} Flow 235: {2 4 0} Flow 291: {7 6 0} Flow 346: {8 12 0} {12 51 0} {51 50 0} {47 18 0} {18 19 0} {19 1 0} {50 49 0} {49 44 0} {44 47 0} Flow 348: {8 56 0} {56 57 0} {57 58 0} {58 59 0} {60 34 0} {34 61 0} {61 53 0} {53 54 0} {54 3 0} Flow 350: {32 22 0} {22 20 0} {52 45 0} {45 29 0} {29 30 0} {30 32 0} {51 52 0} Flow 353: {8 9 0} Flow 354: {32 25 0} {25 10 0} Flow 355: {47 48 0} {48 11 0} Flow 357: {28 13 0} Flow 359: {9 15 0} Flow 368: {23 24 0} Flow 370: {9 26 0} Flow 405: {26 58 0} {59 49 0} Flow 409: {9 8 0} Flow 413: {15 51 0} Flow 442: {10 5 0} Flow 501: {11 1 0} Flow 532: {43 34 0} Flow 618: {14 11 0} Flow 709: {16 42 0} {41 14 0} Flow 723: {46 47 0} Flow 739: {37 40 0} Flow 756: {17 16 0} Flow 816: {18 47 0} Flow 1056: {23 32 0} Flow 1209: {49 45 0} Flow 1237: {27 13 0} {13 12 0} Flow 1258: {13 28 0} Flow 1260: {33 31 0} Flow 1279: {33 55 0} Flow 1280: {55 56 0} Flow 1285: {28 8 0} Flow 1306: {31 33 0} Flow 1429: {31 28 0} Flow 1447: {33 27 0} Flow 1540: {43 44 0} Flow 1590: {35 36 0} {36 17 0} Flow 1617: {35 38 0} {38 37 0} Flow 1618: {40 39 0} Flow 1678: {37 17 0} Flow 1755: {38 35 0} Flow 1775: {39 42 0} Flow 1791: {40 37 0} Flow 2577: {56 8 0} Time taken running everything: 1 seconds
