networks/zoo_123_2929/zoo_123_2929-lower.sol
<?xml version = "1.0" encoding="UTF-8" standalone="yes"?>
<CPLEXSolution version="1.2">
 <header
   problemName="networks/zoo_123_2929/zoo_123_2929-lower.lp"
   solutionName="incumbent"
   solutionIndex="-1"
   objectiveValue="60"
   solutionTypeValue="3"
   solutionTypeString="primal"
   solutionStatusValue="101"
   solutionStatusString="integer optimal solution"
   solutionMethodString="mip"
   primalFeasible="1"
   dualFeasible="1"
   MIPNodes="0"
   MIPIterations="0"
   writeLevel="3"/>
 <quality
   epInt="1.0000000000000001e-05"
   epRHS="9.9999999999999995e-07"
   maxIntInfeas="0"
   maxPrimalInfeas="0"
   maxX="1"
   maxSlack="1"/>
 <variables>
  <variable name="Y(1,2)" index="1" value="1"/>
  <variable name="Y(2,3)" index="123" value="1"/>
  <variable name="Y(3,4)" index="245" value="1"/>
  <variable name="Y(4,5)" index="367" value="1"/>
  <variable name="Y(5,6)" index="489" value="1"/>
  <variable name="Y(6,7)" index="611" value="1"/>
  <variable name="Y(7,8)" index="733" value="1"/>
  <variable name="Y(8,9)" index="855" value="1"/>
  <variable name="Y(9,11)" index="978" value="1"/>
  <variable name="Y(10,12)" index="1100" value="1"/>
  <variable name="Y(11,13)" index="1222" value="1"/>
  <variable name="Y(12,14)" index="1344" value="1"/>
  <variable name="Y(13,15)" index="1466" value="1"/>
  <variable name="Y(14,16)" index="1588" value="1"/>
  <variable name="Y(15,17)" index="1710" value="1"/>
  <variable name="Y(16,18)" index="1832" value="1"/>
  <variable name="Y(17,19)" index="1954" value="1"/>
  <variable name="Y(18,20)" index="2076" value="1"/>
  <variable name="Y(19,21)" index="2198" value="1"/>
  <variable name="Y(20,22)" index="2320" value="1"/>
  <variable name="Y(21,23)" index="2442" value="1"/>
  <variable name="Y(22,24)" index="2564" value="1"/>
  <variable name="Y(23,26)" index="2687" value="1"/>
  <variable name="Y(24,27)" index="2809" value="1"/>
  <variable name="Y(25,28)" index="2931" value="1"/>
  <variable name="Y(26,30)" index="3054" value="1"/>
  <variable name="Y(27,31)" index="3176" value="1"/>
  <variable name="Y(28,32)" index="3298" value="1"/>
  <variable name="Y(29,33)" index="3420" value="1"/>
  <variable name="Y(30,34)" index="3542" value="1"/>
  <variable name="Y(31,35)" index="3664" value="1"/>
  <variable name="Y(32,36)" index="3786" value="1"/>
  <variable name="Y(33,37)" index="3908" value="1"/>
  <variable name="Y(34,38)" index="4030" value="1"/>
  <variable name="Y(35,39)" index="4152" value="1"/>
  <variable name="Y(36,40)" index="4274" value="1"/>
  <variable name="Y(37,41)" index="4396" value="1"/>
  <variable name="Y(38,42)" index="4518" value="1"/>
  <variable name="Y(39,43)" index="4640" value="1"/>
  <variable name="Y(40,44)" index="4762" value="1"/>
  <variable name="Y(41,45)" index="4884" value="1"/>
  <variable name="Y(42,47)" index="5007" value="1"/>
  <variable name="Y(43,48)" index="5129" value="1"/>
  <variable name="Y(44,49)" index="5251" value="1"/>
  <variable name="Y(45,50)" index="5373" value="1"/>
  <variable name="Y(46,51)" index="5495" value="1"/>
  <variable name="Y(47,53)" index="5618" value="1"/>
  <variable name="Y(48,54)" index="5740" value="1"/>
  <variable name="Y(49,55)" index="5862" value="1"/>
  <variable name="Y(50,56)" index="5984" value="1"/>
  <variable name="Y(51,57)" index="6106" value="1"/>
  <variable name="Y(52,58)" index="6228" value="1"/>
  <variable name="Y(53,59)" index="6350" value="1"/>
  <variable name="Y(54,60)" index="6472" value="1"/>
  <variable name="Y(55,61)" index="6594" value="1"/>
  <variable name="Y(56,1)" index="6655" value="1"/>
  <variable name="Y(64,10)" index="7632" value="1"/>
  <variable name="Y(79,25)" index="9462" value="1"/>
  <variable name="Y(99,46)" index="11903" value="1"/>
  <variable name="Y(105,52)" index="12635" value="1"/>
  <variable name="X(1,3,2)" index="354410" value="1"/>
  <variable name="X(1,4,1)" index="357338" value="1"/>
  <variable name="X(1,11,7)" index="360273" value="1"/>
  <variable name="X(1,19,16)" index="363211" value="1"/>
  <variable name="X(1,21,4)" index="366128" value="1"/>
  <variable name="X(1,63,56)" index="369109" value="1"/>
  <variable name="X(2,4,235)" index="372217" value="1"/>
  <variable name="X(2,6,119)" index="375030" value="1"/>
  <variable name="X(2,64,1)" index="377841" value="1"/>
  <variable name="X(3,1,56)" index="380825" value="1"/>
  <variable name="X(3,6,5)" index="383703" value="1"/>
  <variable name="X(3,54,30)" index="386657" value="1"/>
  <variable name="X(3,65,2)" index="389558" value="1"/>
  <variable name="X(4,1,115)" index="392600" value="1"/>
  <variable name="X(4,2,1)" index="395415" value="1"/>
  <variable name="X(4,66,3)" index="398346" value="1"/>
  <variable name="X(5,10,22)" index="401294" value="1"/>
  <variable name="X(5,20,174)" index="404375" value="1"/>
  <variable name="X(5,67,4)" index="407134" value="1"/>
  <variable name="X(6,2,57)" index="410116" value="1"/>
  <variable name="X(6,3,232)" index="413220" value="1"/>
  <variable name="X(6,7,6)" index="415923" value="1"/>
  <variable name="X(6,68,5)" index="418851" value="1"/>
  <variable name="X(7,6,291)" index="422066" value="1"/>
  <variable name="X(7,69,6)" index="424710" value="1"/>
  <variable name="X(8,9,353)" index="427986" value="1"/>
  <variable name="X(8,12,346)" index="430908" value="1"/>
  <variable name="X(8,28,25)" index="433516" value="1"/>
  <variable name="X(8,56,348)" index="436768" value="1"/>
  <variable name="X(8,70,7)" index="439356" value="1"/>
  <variable name="X(9,8,409)" index="442687" value="1"/>
  <variable name="X(9,15,359)" index="445566" value="1"/>
  <variable name="X(9,26,370)" index="448506" value="1"/>
  <variable name="X(9,71,8)" index="451073" value="1"/>
  <variable name="X(10,5,442)" index="454436" value="1"/>
  <variable name="X(10,25,22)" index="456945" value="1"/>
  <variable name="X(10,72,64)" index="459916" value="1"/>
  <variable name="X(11,1,501)" index="463282" value="1"/>
  <variable name="X(11,14,12)" index="465722" value="1"/>
  <variable name="X(11,48,7)" index="468646" value="1"/>
  <variable name="X(11,73,9)" index="471577" value="1"/>
  <variable name="X(12,8,7)" index="474504" value="1"/>
  <variable name="X(12,13,11)" index="477437" value="1"/>
  <variable name="X(12,51,346)" index="480701" value="1"/>
  <variable name="X(12,74,10)" index="483294" value="1"/>
  <variable name="X(13,12,1237)" index="487450" value="1"/>
  <variable name="X(13,27,24)" index="489166" value="1"/>
  <variable name="X(13,28,1258)" index="493329" value="1"/>
  <variable name="X(13,75,11)" index="495011" value="1"/>
  <variable name="X(14,11,618)" index="498547" value="1"/>
  <variable name="X(14,41,14)" index="500872" value="1"/>
  <variable name="X(14,76,12)" index="503799" value="1"/>
  <variable name="X(15,9,8)" index="506724" value="1"/>
  <variable name="X(15,51,413)" index="510058" value="1"/>
  <variable name="X(15,77,13)" index="512587" value="1"/>
  <variable name="X(16,17,15)" index="515518" value="1"/>
  <variable name="X(16,42,709)" index="519141" value="1"/>
  <variable name="X(16,78,14)" index="521375" value="1"/>
  <variable name="X(17,16,756)" index="525046" value="1"/>
  <variable name="X(17,36,31)" index="527250" value="1"/>
  <variable name="X(17,37,33)" index="530181" value="1"/>
  <variable name="X(17,79,15)" index="533092" value="1"/>
  <variable name="X(18,19,346)" index="536352" value="1"/>
  <variable name="X(18,47,816)" index="539751" value="1"/>
  <variable name="X(18,80,16)" index="541880" value="1"/>
  <variable name="X(19,1,346)" index="545139" value="1"/>
  <variable name="X(19,18,16)" index="547738" value="1"/>
  <variable name="X(19,81,17)" index="550668" value="1"/>
  <variable name="X(20,5,4)" index="553584" value="1"/>
  <variable name="X(20,21,174)" index="556683" value="1"/>
  <variable name="X(20,22,20)" index="559458" value="1"/>
  <variable name="X(20,82,18)" index="562385" value="1"/>
  <variable name="X(21,1,174)" index="565470" value="1"/>
  <variable name="X(21,20,4)" index="568229" value="1"/>
  <variable name="X(21,83,19)" index="571173" value="1"/>
  <variable name="X(22,20,350)" index="574433" value="1"/>
  <variable name="X(22,32,21)" index="577033" value="1"/>
  <variable name="X(22,84,20)" index="579961" value="1"/>
  <variable name="X(23,24,368)" index="583238" value="1"/>
  <variable name="X(23,32,1056)" index="586855" value="1"/>
  <variable name="X(23,85,21)" index="588749" value="1"/>
  <variable name="X(24,23,195)" index="591852" value="1"/>
  <variable name="X(24,86,22)" index="594608" value="1"/>
  <variable name="X(25,10,354)" index="597869" value="1"/>
  <variable name="X(25,24,22)" index="600466" value="1"/>
  <variable name="X(25,32,180)" index="603553" value="1"/>
  <variable name="X(25,87,79)" index="606381" value="1"/>
  <variable name="X(26,9,63)" index="609294" value="1"/>
  <variable name="X(26,58,405)" index="612565" value="1"/>
  <variable name="X(26,88,23)" index="615112" value="1"/>
  <variable name="X(27,13,1237)" index="619255" value="1"/>
  <variable name="X(27,33,29)" index="620976" value="1"/>
  <variable name="X(27,89,24)" index="623900" value="1"/>
  <variable name="X(28,8,1285)" index="628090" value="1"/>
  <variable name="X(28,13,357)" index="630091" value="1"/>
  <variable name="X(28,31,27)" index="632690" value="1"/>
  <variable name="X(28,90,25)" index="635617" value="1"/>
  <variable name="X(29,30,350)" index="638871" value="1"/>
  <variable name="X(29,45,180)" index="641630" value="1"/>
  <variable name="X(30,29,180)" index="644559" value="1"/>
  <variable name="X(30,32,350)" index="647658" value="1"/>
  <variable name="X(30,42,188)" index="650425" value="1"/>
  <variable name="X(30,92,26)" index="653192" value="1"/>
  <variable name="X(31,28,1429)" index="657524" value="1"/>
  <variable name="X(31,33,1306)" index="660330" value="1"/>
  <variable name="X(31,93,27)" index="661980" value="1"/>
  <variable name="X(32,22,350)" index="665232" value="1"/>
  <variable name="X(32,23,21)" index="667832" value="1"/>
  <variable name="X(32,25,354)" index="671094" value="1"/>
  <variable name="X(32,30,180)" index="673849" value="1"/>
  <variable name="X(32,94,28)" index="676626" value="1"/>
  <variable name="X(33,27,1447)" index="680974" value="1"/>
  <variable name="X(33,31,1260)" index="683716" value="1"/>
  <variable name="X(33,55,1279)" index="686664" value="1"/>
  <variable name="X(33,95,29)" index="688343" value="1"/>
  <variable name="X(34,43,96)" index="691339" value="1"/>
  <variable name="X(34,60,54)" index="694226" value="1"/>
  <variable name="X(34,61,348)" index="697449" value="1"/>
  <variable name="X(34,96,30)" index="700060" value="1"/>
  <variable name="X(35,36,1590)" index="704549" value="1"/>
  <variable name="X(35,38,1617)" index="707505" value="1"/>
  <variable name="X(35,97,31)" index="708848" value="1"/>
  <variable name="X(36,17,1590)" index="713336" value="1"/>
  <variable name="X(36,35,31)" index="714706" value="1"/>
  <variable name="X(36,98,32)" index="717636" value="1"/>
  <variable name="X(37,17,1678)" index="722211" value="1"/>
  <variable name="X(37,38,34)" index="723496" value="1"/>
  <variable name="X(37,40,739)" index="727130" value="1"/>
  <variable name="X(37,99,33)" index="729353" value="1"/>
  <variable name="X(38,35,1755)" index="734004" value="1"/>
  <variable name="X(38,37,1617)" index="736795" value="1"/>
  <variable name="X(38,100,34)" index="738141" value="1"/>
  <variable name="X(39,40,36)" index="741072" value="1"/>
  <variable name="X(39,42,1775)" index="745740" value="1"/>
  <variable name="X(39,101,35)" index="746929" value="1"/>
  <variable name="X(40,37,1791)" index="751614" value="1"/>
  <variable name="X(40,39,1618)" index="754370" value="1"/>
  <variable name="X(40,102,36)" index="755717" value="1"/>
  <variable name="X(41,14,709)" index="759319" value="1"/>
  <variable name="X(41,42,14)" index="761553" value="1"/>
  <variable name="X(41,103,37)" index="764505" value="1"/>
  <variable name="X(42,16,14)" index="767411" value="1"/>
  <variable name="X(42,30,26)" index="770352" value="1"/>
  <variable name="X(42,39,35)" index="773290" value="1"/>
  <variable name="X(42,41,212)" index="776396" value="1"/>
  <variable name="X(42,104,38)" index="779151" value="1"/>
  <variable name="X(43,34,532)" index="782574" value="1"/>
  <variable name="X(43,44,1540)" index="786511" value="1"/>
  <variable name="X(43,105,39)" index="787939" value="1"/>
  <variable name="X(44,43,39)" index="790868" value="1"/>
  <variable name="X(44,47,346)" index="794104" value="1"/>
  <variable name="X(44,49,7)" index="796694" value="1"/>
  <variable name="X(44,106,40)" index="799656" value="1"/>
  <variable name="X(45,29,350)" index="802895" value="1"/>
  <variable name="X(45,46,217)" index="805691" value="1"/>
  <variable name="X(45,49,198)" index="808601" value="1"/>
  <variable name="X(45,52,105)" index="811437" value="1"/>
  <variable name="X(45,107,41)" index="814302" value="1"/>
  <variable name="X(46,45,41)" index="817231" value="1"/>
  <variable name="X(46,47,723)" index="820842" value="1"/>
  <variable name="X(46,108,99)" index="823147" value="1"/>
  <variable name="X(47,18,346)" index="826323" value="1"/>
  <variable name="X(47,44,7)" index="828913" value="1"/>
  <variable name="X(47,46,41)" index="831876" value="1"/>
  <variable name="X(47,48,355)" index="835119" value="1"/>
  <variable name="X(47,109,42)" index="837735" value="1"/>
  <variable name="X(48,11,355)" index="840977" value="1"/>
  <variable name="X(48,47,7)" index="843558" value="1"/>
  <variable name="X(48,110,43)" index="846523" value="1"/>
  <variable name="X(49,44,346)" index="849755" value="1"/>
  <variable name="X(49,45,1209)" index="853547" value="1"/>
  <variable name="X(49,50,7)" index="855274" value="1"/>
  <variable name="X(49,59,23)" index="858219" value="1"/>
  <variable name="X(49,111,44)" index="861169" value="1"/>
  <variable name="X(50,49,346)" index="864400" value="1"/>
  <variable name="X(50,51,7)" index="866990" value="1"/>
  <variable name="X(50,112,45)" index="869957" value="1"/>
  <variable name="X(51,12,7)" index="872848" value="1"/>
  <variable name="X(51,15,8)" index="875778" value="1"/>
  <variable name="X(51,50,346)" index="879045" value="1"/>
  <variable name="X(51,52,350)" index="881978" value="1"/>
  <variable name="X(51,113,46)" index="884603" value="1"/>
  <variable name="X(52,45,350)" index="887836" value="1"/>
  <variable name="X(52,51,180)" index="890595" value="1"/>
  <variable name="X(52,114,105)" index="893449" value="1"/>
  <variable name="X(53,54,348)" index="896621" value="1"/>
  <variable name="X(53,61,30)" index="899232" value="1"/>
  <variable name="X(53,115,47)" index="902178" value="1"/>
  <variable name="X(54,3,348)" index="905408" value="1"/>
  <variable name="X(54,53,30)" index="908019" value="1"/>
  <variable name="X(54,116,48)" index="910966" value="1"/>
  <variable name="X(55,33,86)" index="913933" value="1"/>
  <variable name="X(55,56,1280)" index="918056" value="1"/>
  <variable name="X(55,117,49)" index="919754" value="1"/>
  <variable name="X(56,8,2577)" index="925211" value="1"/>
  <variable name="X(56,55,49)" index="925612" value="1"/>
  <variable name="X(56,57,348)" index="928840" value="1"/>
  <variable name="X(56,118,50)" index="931471" value="1"/>
  <variable name="X(57,56,49)" index="934399" value="1"/>
  <variable name="X(57,58,348)" index="937627" value="1"/>
  <variable name="X(57,119,51)" index="940259" value="1"/>
  <variable name="X(58,26,23)" index="943160" value="1"/>
  <variable name="X(58,57,49)" index="946115" value="1"/>
  <variable name="X(58,59,348)" index="949343" value="1"/>
  <variable name="X(58,120,52)" index="951976" value="1"/>
  <variable name="X(59,49,405)" index="955258" value="1"/>
  <variable name="X(59,58,23)" index="957805" value="1"/>
  <variable name="X(59,60,230)" index="960941" value="1"/>
  <variable name="X(59,121,53)" index="963693" value="1"/>
  <variable name="X(60,34,348)" index="966917" value="1"/>
  <variable name="X(60,59,63)" index="969561" value="1"/>
  <variable name="X(60,122,54)" index="972481" value="1"/>
  <variable name="X(61,34,30)" index="975386" value="1"/>
  <variable name="X(61,53,348)" index="978633" value="1"/>
  <variable name="X(61,123,55)" index="981269" value="1"/>
 </variables>
</CPLEXSolution>
